(set-info :smt-lib-version 2.6)
(set-logic QF_UF)
(set-info :source |
Generated by: Aman Goel (amangoel@umich.edu), Karem A. Sakallah (karem@umich.edu)
Generated on: 2018-04-06

Generated by the tool Averroes 2 (successor of [1]) which implements safety property
verification on hardware systems.

This SMT problem belongs to a set of SMT problems generated by applying Averroes 2
to benchmarks derived from [2-5].

A total of 412 systems (345 from [2], 19 from [3], 26 from [4], 22 from [5]) were
syntactically converted from their original formats (using [6, 7]), and given to 
Averroes 2 to perform property checking with abstraction (wide bit-vectors -> terms, 
wide operators -> UF) using SMT solvers [8, 9].

[1] Lee S., Sakallah K.A. (2014) Unbounded Scalable Verification Based on Approximate
Property-Directed Reachability and Datapath Abstraction. In: Biere A., Bloem R. (eds)
Computer Aided Verification. CAV 2014. Lecture Notes in Computer Science, vol 8559.
Springer, Cham
[2] http://fmv.jku.at/aiger/index.html#beem
[3] http://www.cs.cmu.edu/~modelcheck/vcegar
[4] http://www.cprover.org/hardware/v2c
[5] http://github.com/aman-goel/verilogbench
[6] http://www.clifford.at/yosys
[7] http://github.com/chengyinwu/V3
[8] http://github.com/Z3Prover/z3
[9] http://github.com/SRI-CSL/yices2

id: leader_filters.5.prop1
query-maker: "Yices 2"
query-time: 0.178000 ms
query-class: abstract
query-category: oneshot
query-type: regular
status: sat
|)
(set-info :license "https://creativecommons.org/licenses/by/4.0/")
(set-info :category "industrial")

;
(set-info :status sat)
(declare-sort utt$8 0)
(declare-sort utt$32 0)
(declare-fun Add_32_32_32 (utt$32 utt$32 ) utt$32)
(declare-fun GrEq_1_32_32 (utt$32 utt$32 ) Bool)
(declare-fun y$1 () Bool)
(declare-fun y$101 () Bool)
(declare-fun y$104 () Bool)
(declare-fun y$106 () Bool)
(declare-fun y$108 () Bool)
(declare-fun y$11 () Bool)
(declare-fun y$110 () Bool)
(declare-fun y$112 () Bool)
(declare-fun y$114 () Bool)
(declare-fun y$116 () Bool)
(declare-fun y$118 () Bool)
(declare-fun y$120 () Bool)
(declare-fun y$122 () Bool)
(declare-fun y$124 () Bool)
(declare-fun y$126 () Bool)
(declare-fun y$128 () Bool)
(declare-fun y$13 () Bool)
(declare-fun y$130 () Bool)
(declare-fun y$132 () Bool)
(declare-fun y$134 () Bool)
(declare-fun y$136 () Bool)
(declare-fun y$138 () Bool)
(declare-fun y$140 () Bool)
(declare-fun y$142 () Bool)
(declare-fun y$144 () Bool)
(declare-fun y$146 () Bool)
(declare-fun y$148 () Bool)
(declare-fun y$15 () Bool)
(declare-fun y$17 () Bool)
(declare-fun y$19 () Bool)
(declare-fun y$21 () Bool)
(declare-fun y$23 () Bool)
(declare-fun y$25 () Bool)
(declare-fun y$27 () Bool)
(declare-fun y$29 () Bool)
(declare-fun y$3 () Bool)
(declare-fun y$31 () Bool)
(declare-fun y$33 () Bool)
(declare-fun y$3400 () Bool)
(declare-fun y$3403 () Bool)
(declare-fun y$3404 () Bool)
(declare-fun y$3461 () Bool)
(declare-fun y$3489 () Bool)
(declare-fun y$35 () Bool)
(declare-fun y$3501 () Bool)
(declare-fun y$3513 () Bool)
(declare-fun y$3514 () Bool)
(declare-fun y$3515 () Bool)
(declare-fun y$3516 () Bool)
(declare-fun y$3517 () Bool)
(declare-fun y$3518 () Bool)
(declare-fun y$3519 () Bool)
(declare-fun y$3528 () Bool)
(declare-fun y$37 () Bool)
(declare-fun y$39 () Bool)
(declare-fun y$41 () Bool)
(declare-fun y$43 () Bool)
(declare-fun y$45 () Bool)
(declare-fun y$47 () Bool)
(declare-fun y$49 () Bool)
(declare-fun y$5 () Bool)
(declare-fun y$51 () Bool)
(declare-fun y$53 () Bool)
(declare-fun y$55 () Bool)
(declare-fun y$57 () Bool)
(declare-fun y$59 () Bool)
(declare-fun y$61 () Bool)
(declare-fun y$63 () Bool)
(declare-fun y$65 () Bool)
(declare-fun y$67 () Bool)
(declare-fun y$69 () Bool)
(declare-fun y$7 () Bool)
(declare-fun y$71 () Bool)
(declare-fun y$73 () Bool)
(declare-fun y$75 () Bool)
(declare-fun y$77 () Bool)
(declare-fun y$79 () Bool)
(declare-fun y$81 () Bool)
(declare-fun y$83 () Bool)
(declare-fun y$85 () Bool)
(declare-fun y$87 () Bool)
(declare-fun y$89 () Bool)
(declare-fun y$9 () Bool)
(declare-fun y$91 () Bool)
(declare-fun y$93 () Bool)
(declare-fun y$95 () Bool)
(declare-fun y$97 () Bool)
(declare-fun y$99 () Bool)
(declare-fun y$a_elected_P_0 () Bool)
(declare-fun y$a_elected_P_0$next () Bool)
(declare-fun y$a_elected_P_1 () Bool)
(declare-fun y$a_elected_P_1$next () Bool)
(declare-fun y$a_elected_P_2 () Bool)
(declare-fun y$a_elected_P_3 () Bool)
(declare-fun y$a_elected_P_4 () Bool)
(declare-fun y$a_p1_P_0 () Bool)
(declare-fun y$a_p1_P_1 () Bool)
(declare-fun y$a_p1_P_2 () Bool)
(declare-fun y$a_p1_P_3 () Bool)
(declare-fun y$a_p1_P_4 () Bool)
(declare-fun y$a_p2_P_0 () Bool)
(declare-fun y$a_p2_P_1 () Bool)
(declare-fun y$a_p2_P_2 () Bool)
(declare-fun y$a_p2_P_3 () Bool)
(declare-fun y$a_p2_P_4 () Bool)
(declare-fun y$a_p3_P_0 () Bool)
(declare-fun y$a_p3_P_1 () Bool)
(declare-fun y$a_p3_P_2 () Bool)
(declare-fun y$a_p3_P_3 () Bool)
(declare-fun y$a_p3_P_4 () Bool)
(declare-fun y$a_p4_P_0 () Bool)
(declare-fun y$a_p4_P_1 () Bool)
(declare-fun y$a_p4_P_2 () Bool)
(declare-fun y$a_p4_P_3 () Bool)
(declare-fun y$a_p4_P_4 () Bool)
(declare-fun y$a_p5_P_0 () Bool)
(declare-fun y$a_p5_P_1 () Bool)
(declare-fun y$a_p5_P_2 () Bool)
(declare-fun y$a_p5_P_3 () Bool)
(declare-fun y$a_p5_P_4 () Bool)
(declare-fun y$a_p6_P_0 () Bool)
(declare-fun y$a_p6_P_1 () Bool)
(declare-fun y$a_p6_P_2 () Bool)
(declare-fun y$a_p6_P_3 () Bool)
(declare-fun y$a_p6_P_4 () Bool)
(declare-fun y$a_p7_P_0 () Bool)
(declare-fun y$a_p7_P_1 () Bool)
(declare-fun y$a_p7_P_2 () Bool)
(declare-fun y$a_p7_P_3 () Bool)
(declare-fun y$a_p7_P_4 () Bool)
(declare-fun y$a_p8_P_0 () Bool)
(declare-fun y$a_p8_P_1 () Bool)
(declare-fun y$a_p8_P_2 () Bool)
(declare-fun y$a_p8_P_3 () Bool)
(declare-fun y$a_p8_P_4 () Bool)
(declare-fun y$a_p9_P_0 () Bool)
(declare-fun y$a_p9_P_1 () Bool)
(declare-fun y$a_p9_P_2 () Bool)
(declare-fun y$a_p9_P_3 () Bool)
(declare-fun y$a_p9_P_4 () Bool)
(declare-fun y$dve_invalid () Bool)
(declare-fun y$id88 () Bool)
(declare-fun y$id88_op () Bool)
(declare-fun y$n0s32 () utt$32)
(declare-fun y$n0s8 () utt$8)
(declare-fun y$n1s32 () utt$32)
(declare-fun y$n1s8 () utt$8)
(declare-fun y$n2s32 () utt$32)
(declare-fun y$n2s8 () utt$8)
(declare-fun y$n3s32 () utt$32)
(declare-fun y$n3s8 () utt$8)
(declare-fun y$n4s32 () utt$32)
(declare-fun y$n4s8 () utt$8)
(declare-fun y$n5s8 () utt$8)
(declare-fun y$prop () Bool)
(declare-fun y$v3_1517448500_77 () utt$32)
(declare-fun y$v3_1517448500_77$next () utt$32)
(declare-fun y$v3_1517448500_77$next_op () utt$32)
(declare-fun y$v3_1517448500_77_op () utt$32)
(declare-fun y$v3_1517448500_78 () utt$32)
(declare-fun y$v3_1517448500_78$next () utt$32)
(declare-fun y$v3_1517448500_78$next_op () utt$32)
(declare-fun y$v3_1517448500_78_op () utt$32)
(declare-fun y$v3_1517448500_79 () utt$32)
(declare-fun y$v3_1517448500_79$next () utt$32)
(declare-fun y$v3_1517448500_79$next_op () utt$32)
(declare-fun y$v3_1517448500_79_op () utt$32)
(declare-fun y$v3_1517448500_80 () utt$32)
(declare-fun y$v3_1517448500_80_op () utt$32)
(declare-fun y$v3_1517448500_81 () utt$32)
(declare-fun y$v3_1517448500_81_op () utt$32)
(declare-fun y$v3_1517448500_82 () utt$32)
(declare-fun y$v3_1517448500_82_op () utt$32)
(declare-fun y$v3_1517448500_83 () utt$32)
(declare-fun y$v3_1517448500_83_op () utt$32)
(declare-fun y$v3_1517448500_84 () utt$32)
(declare-fun y$v3_1517448500_84_op () utt$32)
(declare-fun y$v3_1517448500_85 () utt$32)
(declare-fun y$v3_1517448500_85_op () utt$32)
(declare-fun y$v3_1517448500_86 () Bool)
(declare-fun y$v3_1517448500_86_op () Bool)
(declare-fun y$v_b_0 () utt$8)
(declare-fun y$v_b_1 () utt$8)
(declare-fun y$v_b_2 () utt$8)
(declare-fun y$v_b_3 () utt$8)
(declare-fun y$v_b_4 () utt$8)
(declare-fun y$v_b_5 () utt$8)
(declare-fun y$v_c_0 () utt$8)
(declare-fun y$v_c_1 () utt$8)
(declare-fun y$v_c_2 () utt$8)
(declare-fun y$v_c_3 () utt$8)
(declare-fun y$v_c_4 () utt$8)
(declare-fun y$v_c_5 () utt$8)
(declare-fun y$v_curr_P_0 () utt$8)
(declare-fun y$v_curr_P_1 () utt$8)
(declare-fun y$v_curr_P_2 () utt$8)
(declare-fun y$v_curr_P_3 () utt$8)
(declare-fun y$v_curr_P_4 () utt$8)
(declare-fun y$v_turn_0 () utt$8)
(declare-fun y$v_turn_1 () utt$8)
(declare-fun y$v_turn_2 () utt$8)
(declare-fun y$v_turn_3 () utt$8)
(declare-fun y$v_turn_4 () utt$8)
(declare-fun y$v_turn_5 () utt$8)
(assert (distinct y$n0s8 y$n4s8 y$n2s8 y$n3s8 y$n1s8 y$n5s8))
(assert (distinct y$n1s32 y$n0s32 y$n2s32 y$n3s32 y$n4s32))
(assert (= y$a_elected_P_0 (not y$1)))
(assert (= y$a_elected_P_1 (not y$3)))
(assert (= y$a_elected_P_2 (not y$5)))
(assert (= y$a_elected_P_3 (not y$7)))
(assert (= y$a_elected_P_4 (not y$9)))
(assert (= y$a_p1_P_0 (not y$11)))
(assert (= y$a_p1_P_1 (not y$13)))
(assert (= y$a_p1_P_2 (not y$15)))
(assert (= y$a_p1_P_3 (not y$17)))
(assert (= y$a_p1_P_4 (not y$19)))
(assert (= y$a_p2_P_0 (not y$21)))
(assert (= y$a_p2_P_1 (not y$23)))
(assert (= y$a_p2_P_2 (not y$25)))
(assert (= y$a_p2_P_3 (not y$27)))
(assert (= y$a_p2_P_4 (not y$29)))
(assert (= y$a_p3_P_0 (not y$31)))
(assert (= y$a_p3_P_1 (not y$33)))
(assert (= y$a_p3_P_2 (not y$35)))
(assert (= y$a_p3_P_3 (not y$37)))
(assert (= y$a_p3_P_4 (not y$39)))
(assert (= y$a_p4_P_0 (not y$41)))
(assert (= y$a_p4_P_1 (not y$43)))
(assert (= y$a_p4_P_2 (not y$45)))
(assert (= y$a_p4_P_3 (not y$47)))
(assert (= y$a_p4_P_4 (not y$49)))
(assert (= y$a_p5_P_0 (not y$51)))
(assert (= y$a_p5_P_1 (not y$53)))
(assert (= y$a_p5_P_2 (not y$55)))
(assert (= y$a_p5_P_3 (not y$57)))
(assert (= y$a_p5_P_4 (not y$59)))
(assert (= y$a_p6_P_0 (not y$61)))
(assert (= y$a_p6_P_1 (not y$63)))
(assert (= y$a_p6_P_2 (not y$65)))
(assert (= y$a_p6_P_3 (not y$67)))
(assert (= y$a_p6_P_4 (not y$69)))
(assert (= y$a_p7_P_0 (not y$71)))
(assert (= y$a_p7_P_1 (not y$73)))
(assert (= y$a_p7_P_2 (not y$75)))
(assert (= y$a_p7_P_3 (not y$77)))
(assert (= y$a_p7_P_4 (not y$79)))
(assert (= y$a_p8_P_0 (not y$81)))
(assert (= y$a_p8_P_1 (not y$83)))
(assert (= y$a_p8_P_2 (not y$85)))
(assert (= y$a_p8_P_3 (not y$87)))
(assert (= y$a_p8_P_4 (not y$89)))
(assert (= y$a_p9_P_0 (not y$91)))
(assert (= y$a_p9_P_1 (not y$93)))
(assert (= y$a_p9_P_2 (not y$95)))
(assert (= y$a_p9_P_3 (not y$97)))
(assert (= y$a_p9_P_4 (not y$99)))
(assert (= y$dve_invalid (not y$101)))
(assert (= y$104 (= y$n0s8 y$v_b_0)))
(assert (= y$106 (= y$n0s8 y$v_b_1)))
(assert (= y$108 (= y$n0s8 y$v_b_2)))
(assert (= y$110 (= y$n0s8 y$v_b_3)))
(assert (= y$112 (= y$n0s8 y$v_b_4)))
(assert (= y$114 (= y$n0s8 y$v_b_5)))
(assert (= y$116 (= y$n0s8 y$v_c_0)))
(assert (= y$118 (= y$n0s8 y$v_c_1)))
(assert (= y$120 (= y$n0s8 y$v_c_2)))
(assert (= y$122 (= y$n0s8 y$v_c_3)))
(assert (= y$124 (= y$n0s8 y$v_c_4)))
(assert (= y$126 (= y$n0s8 y$v_c_5)))
(assert (= y$128 (= y$n0s8 y$v_curr_P_0)))
(assert (= y$130 (= y$n0s8 y$v_curr_P_1)))
(assert (= y$132 (= y$n0s8 y$v_curr_P_2)))
(assert (= y$134 (= y$n0s8 y$v_curr_P_3)))
(assert (= y$136 (= y$n0s8 y$v_curr_P_4)))
(assert (= y$138 (= y$n0s8 y$v_turn_0)))
(assert (= y$140 (= y$n0s8 y$v_turn_1)))
(assert (= y$142 (= y$n0s8 y$v_turn_2)))
(assert (= y$144 (= y$n0s8 y$v_turn_3)))
(assert (= y$146 (= y$n0s8 y$v_turn_4)))
(assert (= y$148 (= y$n0s8 y$v_turn_5)))
(assert (= y$prop (not y$3461)))
(assert (= y$v3_1517448500_77_op (ite y$a_elected_P_0 y$n1s32 y$n0s32)))
(assert (= y$v3_1517448500_78_op (ite y$a_elected_P_1 y$n1s32 y$n0s32)))
(assert (= y$v3_1517448500_79_op (Add_32_32_32 y$v3_1517448500_77_op y$v3_1517448500_78_op)))
(assert (= y$v3_1517448500_80_op (ite y$a_elected_P_2 y$n1s32 y$n0s32)))
(assert (= y$v3_1517448500_81_op (Add_32_32_32 y$v3_1517448500_79_op y$v3_1517448500_80_op)))
(assert (= y$v3_1517448500_82_op (ite y$a_elected_P_3 y$n1s32 y$n0s32)))
(assert (= y$v3_1517448500_83_op (Add_32_32_32 y$v3_1517448500_81_op y$v3_1517448500_82_op)))
(assert (= y$v3_1517448500_84_op (ite y$a_elected_P_4 y$n1s32 y$n0s32)))
(assert (= y$v3_1517448500_85_op (Add_32_32_32 y$v3_1517448500_83_op y$v3_1517448500_84_op)))
(assert (= y$v3_1517448500_86_op (GrEq_1_32_32 y$n1s32 y$v3_1517448500_85_op)))
(assert (= y$v3_1517448500_86_op (not y$3400)))
(assert (= y$id88_op (and y$101 y$3400)))
(assert (= y$id88_op (not y$3403)))
(assert (= y$3404 (= y$prop y$3403)))
(assert (= y$a_elected_P_0$next (not y$3514)))
(assert (= y$a_elected_P_1$next (not y$3515)))
(assert (= y$v3_1517448500_77$next_op (ite y$a_elected_P_0$next y$n1s32 y$n0s32)))
(assert (= y$v3_1517448500_78$next_op (ite y$a_elected_P_1$next y$n1s32 y$n0s32)))
(assert (= y$v3_1517448500_79$next_op (Add_32_32_32 y$v3_1517448500_77$next_op y$v3_1517448500_78$next_op)))
(assert (= y$3516 (not (= y$n0s32 y$v3_1517448500_79$next_op))))
(assert (= y$3517 (and y$3514 y$3515 y$3516)))
(assert (= y$3517 (not y$3519)))
(assert (= y$3501 (not (= y$n0s32 y$v3_1517448500_79_op))))
(assert (= y$3513 (and y$1 y$3 y$3501)))
(assert (= y$3513 (not y$3518)))
(assert (= y$3528 (and y$1 y$3 y$5 y$7 y$9 y$11 y$13 y$15 y$17 y$19 y$21 y$23 y$25 y$27 y$29 y$31 y$33 y$35 y$37 y$39 y$41 y$43 y$45 y$47 y$49 y$51 y$53 y$55 y$57 y$59 y$61 y$63 y$65 y$67 y$69 y$71 y$73 y$75 y$77 y$79 y$81 y$83 y$85 y$87 y$89 y$91 y$93 y$95 y$97 y$99 y$101 y$104 y$106 y$108 y$110 y$112 y$114 y$116 y$118 y$120 y$122 y$124 y$126 y$128 y$130 y$132 y$134 y$136 y$138 y$140 y$142 y$144 y$146 y$148 y$3461 y$3404 y$3519 y$3518)))
(assert y$3528)
(check-sat)
(exit)
